(declare-const X String)
; GmbH\d+Host\x3A\w+adblock\x2Elinkz\x2EcomUser-Agent\x3Aemail
(assert (str.in_re X (re.++ (str.to_re "GmbH") (re.+ (re.range "0" "9")) (str.to_re "Host:") (re.+ (re.union (re.range "0" "9") (re.range "A" "Z") (re.range "a" "z") (str.to_re "_"))) (str.to_re "adblock.linkz.comUser-Agent:email\u{a}"))))
; Travel\s+version\s+lnzzlnbk\x2fpkrm\.finFILESIZE\x3EM1User-Agent\x3AAgentwww\x2Eweepee\x2EcomOnlineM1Host\x3A
(assert (str.in_re X (re.++ (str.to_re "Travel") (re.+ (re.union (str.to_re " ") (str.to_re "\u{9}") (str.to_re "\u{a}") (str.to_re "\u{c}") (str.to_re "\u{d}"))) (str.to_re "version") (re.+ (re.union (str.to_re " ") (str.to_re "\u{9}") (str.to_re "\u{a}") (str.to_re "\u{c}") (str.to_re "\u{d}"))) (str.to_re "lnzzlnbk/pkrm.finFILESIZE>\u{13}M1User-Agent:Agentwww.weepee.com\u{1b}OnlineM1Host:\u{a}"))))
(check-sat)

(exit)
